50
1 0 25
2 0 61
2 1 35
3 0 5
3 1 19
3 2 19
4 0 76
4 1 60
4 2 56
4 3 23
5 0 76
5 1 21
5 2 12
5 3 79
5 4 64
6 0 23
6 1 73
6 3 14
6 4 49
6 5 12
7 0 40
7 1 4
7 4 38
7 6 64
8 0 24
8 1 9
8 3 5
8 4 15
8 5 7
8 6 64
8 7 53
9 0 5
9 1 64
9 2 77
9 3 34
9 4 59
9 5 13
9 6 51
9 7 17
9 8 15
10 0 12
10 1 60
10 5 66
10 6 35
10 7 29
10 8 34
10 9 43
11 0 64
11 2 71
11 4 54
11 5 28
11 6 1
11 7 78
11 8 11
12 2 49
12 3 32
12 4 8
12 6 9
12 8 72
12 9 59
12 10 26
12 11 67
13 0 55
13 1 33
13 3 60
13 4 66
13 5 20
13 6 42
13 7 39
13 8 23
13 9 65
13 11 73
13 12 39
14 1 14
14 2 1
14 3 43
14 4 75
14 5 69
14 6 34
14 7 2
14 8 43
14 9 61
14 10 67
14 12 24
14 13 69
15 0 18
15 1 42
15 2 65
15 3 36
15 4 80
15 5 39
15 6 70
15 7 50
15 8 32
15 11 10
15 12 23
15 13 29
15 14 27
16 0 41
16 1 78
16 3 2
16 4 33
16 5 18
16 9 52
16 10 24
16 11 25
16 13 41
16 14 24
16 15 40
17 0 12
17 1 1
17 3 28
17 4 37
17 5 67
17 6 72
17 7 46
17 8 22
17 9 70
17 10 44
17 11 58
17 12 71
17 13 65
17 15 48
17 16 49
18 2 61
18 3 22
18 5 36
18 7 73
18 8 59
18 9 36
18 11 77
18 12 65
18 13 46
18 14 40
18 16 47
19 0 29
19 1 72
19 2 47
19 3 19
19 5 74
19 6 50
19 8 60
19 10 21
19 11 54
19 12 55
19 13 32
19 14 63
19 15 53
19 18 54
20 0 61
20 1 20
20 3 32
20 5 31
20 6 19
20 7 77
20 8 77
20 9 33
20 10 72
20 11 62
20 12 28
20 13 80
20 14 21
20 15 38
20 16 23
20 17 49
20 18 48
21 0 60
21 2 24
21 3 63
21 5 17
21 6 60
21 7 6
21 8 30
21 9 17
21 10 35
21 11 66
21 12 80
21 13 69
21 14 54
21 16 13
21 17 1
21 19 53
21 20 15
22 0 15
22 1 61
22 2 77
22 3 42
22 5 26
22 6 43
22 7 49
22 8 45
22 9 75
22 10 4
22 11 35
22 12 59
22 13 30
22 14 29
22 15 24
22 16 47
22 18 16
22 19 45
22 20 23
22 21 48
23 0 9
23 1 23
23 2 11
23 3 30
23 5 2
23 6 44
23 7 7
23 8 56
23 9 16
23 10 47
23 11 57
23 12 74
23 13 22
23 15 45
23 17 49
23 19 28
23 20 48
23 21 28
23 22 34
24 0 37
24 1 42
24 3 28
24 5 18
24 7 65
24 8 50
24 9 38
24 11 5
24 12 38
24 13 24
24 14 61
24 15 69
24 17 17
24 18 29
24 19 41
24 20 27
24 21 51
24 22 5
25 0 16
25 1 68
25 2 51
25 4 29
25 5 42
25 6 24
25 7 79
25 9 10
25 10 79
25 11 79
25 12 64
25 13 7
25 14 60
25 15 76
25 16 18
25 17 29
25 18 48
25 19 63
25 20 54
25 21 13
25 23 29
26 0 72
26 1 26
26 2 9
26 4 54
26 5 8
26 7 60
26 8 25
26 11 73
26 13 21
26 14 48
26 15 58
26 17 37
26 18 3
26 19 36
26 20 28
26 21 46
26 23 77
26 24 1
26 25 18
27 0 34
27 1 57
27 3 54
27 4 31
27 5 19
27 6 72
27 8 31
27 9 16
27 10 54
27 11 44
27 12 33
27 13 62
27 14 41
27 15 5
27 17 62
27 18 71
27 19 68
27 21 65
27 23 30
27 24 45
27 25 63
27 26 49
28 0 62
28 1 79
28 2 9
28 3 12
28 4 33
28 7 19
28 8 1
28 9 78
28 10 40
28 11 41
28 12 29
28 13 61
28 14 76
28 15 65
28 16 22
28 17 21
28 18 47
28 19 62
28 23 38
28 24 9
28 25 80
28 26 66
28 27 63
29 1 71
29 3 65
29 4 18
29 5 18
29 6 68
29 7 7
29 8 26
29 9 30
29 10 73
29 11 23
29 12 42
29 13 35
29 14 41
29 15 42
29 16 80
29 18 41
29 19 72
29 20 58
29 21 8
29 22 78
29 24 75
29 26 50
29 27 14
29 28 12
30 0 31
30 1 70
30 2 43
30 3 71
30 4 42
30 5 46
30 6 15
30 7 48
30 8 21
30 9 75
30 10 64
30 12 70
30 13 49
30 15 44
30 16 66
30 17 70
30 19 37
30 20 12
30 21 66
30 22 78
30 23 52
30 24 15
30 25 17
30 26 37
30 28 43
30 29 75
31 1 6
31 2 23
31 4 15
31 5 24
31 6 28
31 7 58
31 8 8
31 9 74
31 12 35
31 14 1
31 15 31
31 17 58
31 18 69
31 19 34
31 20 6
31 21 40
31 22 48
31 23 16
31 25 77
31 26 27
31 27 65
31 29 60
31 30 21
32 0 67
32 1 37
32 2 22
32 3 62
32 4 20
32 7 2
32 8 46
32 10 8
32 11 76
32 12 67
32 13 47
32 14 44
32 15 5
32 16 17
32 17 22
32 18 46
32 19 57
32 20 38
32 21 78
32 22 10
32 23 10
32 24 11
32 25 4
32 26 46
32 27 60
32 28 27
32 29 55
32 30 22
32 31 34
33 1 46
33 2 71
33 4 19
33 5 63
33 6 17
33 7 19
33 8 57
33 9 59
33 11 12
33 12 71
33 15 13
33 16 66
33 17 70
33 18 21
33 19 68
33 20 5
33 22 28
33 23 7
33 24 44
33 25 19
33 26 50
33 27 8
33 29 54
33 30 32
33 32 77
34 0 36
34 1 74
34 2 80
34 3 50
34 4 64
34 5 10
34 7 52
34 8 42
34 9 25
34 10 67
34 11 58
34 12 32
34 13 47
34 15 58
34 18 13
34 19 6
34 20 16
34 21 65
34 23 23
34 24 27
34 25 55
34 26 16
34 28 5
34 29 3
34 30 12
34 31 63
34 32 15
34 33 22
35 0 65
35 2 65
35 3 46
35 4 26
35 5 77
35 6 52
35 7 75
35 8 63
35 9 28
35 10 49
35 11 2
35 12 69
35 13 5
35 14 49
35 15 44
35 16 32
35 17 9
35 18 72
35 19 21
35 20 34
35 21 48
35 22 58
35 23 28
35 24 12
35 25 80
35 26 44
35 27 8
35 28 64
35 29 43
35 30 40
35 31 69
35 32 33
35 33 59
36 2 32
36 3 58
36 4 44
36 5 47
36 6 73
36 8 26
36 9 39
36 11 49
36 12 10
36 13 36
36 14 52
36 16 50
36 17 65
36 18 41
36 20 10
36 22 62
36 23 4
36 24 56
36 26 8
36 29 72
36 30 43
36 31 49
36 32 68
36 33 78
36 34 19
36 35 11
37 0 25
37 1 21
37 4 44
37 5 31
37 6 21
37 7 7
37 8 66
37 12 33
37 13 30
37 14 68
37 17 39
37 18 36
37 19 58
37 20 29
37 21 66
37 22 73
37 24 57
37 25 57
37 26 57
37 27 14
37 28 18
37 29 78
37 30 44
37 31 68
37 32 75
37 33 27
37 34 14
37 35 43
37 36 76
38 1 10
38 2 40
38 3 23
38 5 17
38 7 7
38 9 77
38 10 42
38 11 57
38 12 64
38 13 47
38 15 68
38 16 79
38 17 3
38 18 13
38 19 64
38 20 42
38 21 20
38 23 59
38 24 51
38 26 27
38 27 39
38 28 49
38 29 42
38 30 13
38 31 80
38 32 37
38 33 74
38 34 4
38 35 1
38 36 51
38 37 79
39 0 19
39 3 53
39 7 64
39 8 40
39 9 54
39 10 22
39 13 14
39 15 77
39 16 41
39 18 33
39 19 33
39 20 60
39 21 34
39 22 37
39 24 75
39 25 38
39 26 37
39 27 43
39 30 13
39 31 76
39 32 53
39 33 61
39 34 39
39 35 22
39 37 60
39 38 4
40 0 9
40 1 80
40 2 72
40 4 71
40 5 71
40 6 11
40 7 39
40 8 44
40 10 3
40 11 30
40 12 54
40 13 22
40 14 56
40 15 46
40 16 69
40 17 41
40 18 59
40 20 10
40 21 18
40 22 37
40 24 13
40 27 10
40 28 39
40 29 20
40 31 17
40 32 52
40 33 19
40 34 17
40 35 27
40 36 53
40 37 49
40 38 15
40 39 29
41 0 59
41 1 10
41 4 64
41 7 59
41 8 40
41 9 34
41 10 12
41 11 47
41 12 2
41 13 62
41 14 76
41 15 56
41 16 73
41 18 40
41 19 74
41 20 14
41 25 38
41 26 63
41 27 54
41 29 64
41 30 9
41 32 75
41 33 46
41 35 7
41 36 3
41 37 19
41 38 68
41 40 43
42 0 34
42 1 76
42 2 75
42 4 11
42 5 38
42 6 6
42 7 20
42 8 77
42 9 24
42 10 56
42 11 47
42 12 45
42 13 14
42 14 35
42 15 8
42 16 49
42 17 30
42 18 77
42 19 25
42 20 67
42 22 80
42 23 19
42 24 7
42 26 12
42 27 25
42 28 73
42 30 9
42 31 13
42 32 76
42 33 9
42 34 34
42 35 56
42 36 68
42 37 12
42 38 2
42 39 76
42 41 23
43 0 56
43 1 66
43 3 17
43 5 55
43 6 15
43 7 7
43 8 1
43 10 19
43 11 35
43 12 48
43 13 2
43 14 6
43 15 21
43 17 26
43 18 63
43 19 57
43 20 76
43 21 72
43 23 66
43 25 32
43 28 57
43 29 74
43 31 46
43 32 77
43 33 44
43 34 58
43 35 6
43 37 33
43 38 59
43 41 64
43 42 48
44 1 11
44 3 29
44 4 30
44 5 27
44 7 41
44 8 45
44 9 36
44 10 26
44 11 48
44 12 21
44 13 51
44 14 26
44 15 68
44 16 14
44 17 32
44 18 60
44 19 79
44 20 77
44 21 3
44 23 43
44 24 62
44 26 72
44 27 79
44 28 2
44 29 28
44 30 50
44 31 64
44 32 7
44 33 7
44 34 14
44 35 38
44 37 38
44 38 16
44 39 20
44 40 13
45 1 6
45 2 38
45 4 27
45 5 5
45 6 69
45 7 26
45 9 14
45 10 6
45 11 20
45 12 40
45 13 31
45 14 43
45 15 15
45 16 74
45 17 22
45 18 4
45 19 12
45 21 72
45 22 42
45 23 10
45 24 34
45 25 66
45 26 38
45 28 1
45 29 46
45 30 30
45 31 33
45 32 16
45 33 29
45 35 33
45 36 75
45 37 34
45 39 51
45 40 67
45 41 13
45 42 48
45 43 5
45 44 27
46 0 56
46 2 69
46 9 38
46 10 53
46 11 22
46 12 60
46 13 19
46 14 21
46 15 21
46 17 11
46 18 80
46 20 5
46 21 31
46 22 27
46 23 42
46 24 75
46 25 73
46 26 74
46 27 18
46 28 18
46 29 30
46 30 28
46 31 62
46 32 71
46 33 56
46 34 67
46 35 5
46 36 33
46 37 21
46 40 23
46 41 28
46 43 29
46 44 8
46 45 4
47 0 73
47 1 14
47 2 44
47 3 35
47 4 32
47 5 60
47 6 22
47 8 56
47 9 11
47 10 13
47 11 73
47 12 7
47 13 12
47 14 73
47 15 78
47 16 6
47 17 65
47 18 4
47 19 73
47 20 22
47 22 32
47 23 18
47 24 7
47 25 19
47 26 22
47 27 66
47 28 64
47 29 58
47 31 20
47 32 60
47 33 19
47 35 51
47 36 29
47 37 11
47 38 69
47 39 11
47 41 54
47 42 57
47 43 37
47 45 68
47 46 48
48 0 55
48 1 55
48 3 48
48 5 53
48 6 30
48 7 79
48 8 11
48 9 80
48 10 49
48 11 22
48 12 70
48 13 50
48 14 5
48 15 64
48 17 63
48 19 46
48 20 32
48 21 53
48 22 69
48 24 63
48 25 20
48 27 35
48 28 21
48 29 1
48 30 33
48 31 36
48 32 22
48 33 22
48 34 49
48 36 42
48 37 29
48 38 12
48 39 57
48 40 72
48 41 50
48 42 48
48 43 9
48 44 24
48 45 72
48 46 41
48 47 73
49 0 56
49 3 44
49 5 30
49 6 9
49 7 44
49 8 65
49 9 73
49 10 5
49 11 78
49 13 69
49 14 49
49 15 22
49 16 46
49 17 2
49 18 72
49 19 74
49 20 27
49 21 18
49 23 48
49 24 42
49 25 67
49 27 20
49 28 66
49 29 77
49 30 44
49 31 43
49 32 7
49 33 15
49 34 80
49 35 12
49 37 38
49 38 56
49 39 2
49 41 43
49 42 22
49 44 80
49 45 50
49 48 64
